NAME : DTSP_Task
TYPE : TSP
DIMENSION : 30
EDGE_WEIGHT_TYPE : EUC_2D
NODE_COORD_SECTION
1 87.4540 78.5176
2 145.0714 19.9674
3 123.1994 51.4234
4 109.8658 59.2415
5 65.6019 4.6450
6 65.5995 60.7545
7 55.8084 17.0524
8 136.6176 6.5052
9 110.1115 94.8886
10 120.8073 96.5632
11 52.0584 80.8397
12 146.9910 30.4614
13 133.2443 9.7672
14 71.2339 68.4233
15 68.1825 44.0152
16 68.3405 12.2038
17 80.4242 49.5177
18 102.4756 3.4389
19 93.1945 90.9320
20 79.1229 25.8780
21 111.1853 66.2522
22 63.9494 31.1711
23 79.2145 52.0068
24 86.6362 54.6710
25 95.6070 18.4854
26 127.9845 10.6981
27 110.7090 63.1308
28 109.7155 65.4133
29 55.1150 39.7793
30 76.6795 50.5926
EOF
